StudentsNr = 10;
InstructorsNr = 89;
DaysNr = 1;
SlotsPerDay = 15;
AvailabilitySlotsLenght = 3;
RoomNr = 1;
ProgrammNr = 1;
DegreeNr = 2;
RolesNr = 4;
CoursesNr = 5;
InstructorsProgramm = [{1}, {1}, {1}, {1}, {1}, {1}, {1}, {1}, {1}, {1}, {1}, {1}, {1}, {1}, {1}, {1}, {1}, {1}, {1}, {1}, {1}, {1}, {1}, {1}, {1}, {1}, {1}, {1}, {1}, {1}, {1}, {1}, {1}, {1}, {1}, {1}, {1}, {1}, {1}, {1}, {1}, {1}, {1}, {1}, {1}, {1}, {1}, {1}, {1}, {1}, {1}, {1}, {1}, {1}, {1}, {1}, {1}, {1}, {1}, {1}, {1}, {1}, {1}, {1}, {1}, {1}, {1}, {1}, {1}, {1}, {1}, {1}, {1}, {1}, {1}, {1}, {1}, {1}, {1}, {1}, {1}, {1}, {1}, {1}, {1}, {1}, {1}, {1}, {1}];
InstructorRolesPerProgramm = [|{5, 6, 7, 11, 12, 13, 15, 16, 17, 19, 20, 21, 24, 25, 31, 32, 35, 36, 39, 41, 42, 44, 47, 48, 49, 57, 58, 61, 63, 64, 69, 70, 71, 76, 80, 82, 84, 87}, {1, 6, 7, 9, 10, 14, 17, 23, 25, 26, 28, 29, 39, 41, 42, 43, 46, 48, 49, 50, 52, 56, 62, 63, 64, 66, 69, 74, 75, 76, 77, 79, 80, 82, 83, 85, 87, 88, 89}, {1, 3, 6, 11, 13, 15, 16, 21, 23, 24, 27, 36, 41, 42, 44, 47, 48, 49, 51, 52, 53, 54, 58, 63, 66, 67, 74, 75, 80, 82, 84, 86, 89}, {1, 3, 5, 11, 13, 14, 16, 17, 19, 20, 25, 26, 27, 28, 31, 35, 39, 43, 44, 46, 47, 49, 50, 53, 54, 56, 58, 63, 67, 68, 71, 74, 75, 79, 83, 84, 87}|];
InstructorsAvailability = [|1, 1, 0, 0, 1, |0, 0, 1, 1, 1, |0, 1, 1, 1, 1, |1, 1, 1, 1, 1, |0, 0, 0, 0, 1, |1, 1, 0, 0, 1, |0, 0, 1, 1, 1, |1, 1, 1, 1, 1, |0, 1, 1, 1, 1, |0, 1, 1, 1, 1, |1, 1, 0, 0, 1, |1, 1, 1, 1, 1, |1, 1, 1, 1, 0, |1, 0, 0, 0, 0, |1, 1, 1, 1, 1, |1, 1, 0, 0, 1, |0, 1, 1, 1, 1, |0, 1, 1, 1, 1, |0, 0, 1, 1, 1, |0, 1, 0, 1, 0, |1, 0, 1, 1, 1, |1, 1, 1, 1, 1, |1, 1, 1, 1, 0, |0, 0, 0, 1, 1, |0, 1, 1, 0, 0, |1, 0, 1, 1, 1, |0, 0, 0, 1, 0, |0, 1, 0, 1, 1, |0, 0, 0, 1, 0, |1, 1, 1, 1, 1, |0, 1, 1, 1, 1, |1, 1, 1, 1, 1, |1, 1, 1, 1, 1, |1, 1, 1, 1, 1, |0, 0, 1, 1, 1, |1, 1, 1, 1, 1, |0, 1, 1, 1, 1, |1, 0, 0, 0, 1, |0, 0, 0, 0, 1, |1, 1, 0, 1, 0, |1, 1, 1, 0, 1, |1, 0, 0, 0, 0, |0, 1, 1, 1, 1, |0, 1, 0, 1, 1, |1, 1, 1, 0, 0, |1, 0, 0, 1, 1, |0, 1, 1, 1, 1, |0, 1, 1, 1, 1, |1, 1, 1, 0, 1, |0, 1, 0, 0, 0, |0, 0, 0, 1, 1, |0, 1, 0, 1, 1, |1, 1, 1, 1, 1, |0, 0, 1, 1, 1, |1, 1, 1, 1, 1, |0, 1, 0, 0, 1, |1, 1, 1, 1, 1, |0, 0, 1, 1, 1, |1, 1, 1, 1, 1, |1, 1, 1, 1, 1, |1, 1, 1, 1, 1, |0, 1, 1, 1, 1, |1, 1, 1, 1, 1, |0, 1, 0, 0, 1, |0, 0, 1, 1, 1, |1, 1, 0, 0, 1, |0, 1, 0, 0, 1, |1, 0, 1, 1, 1, |0, 0, 1, 1, 1, |0, 1, 1, 0, 1, |0, 1, 1, 1, 1, |1, 1, 1, 1, 1, |1, 1, 1, 1, 1, |0, 1, 1, 1, 1, |0, 0, 1, 1, 1, |1, 1, 1, 1, 1, |1, 1, 1, 0, 1, |0, 1, 1, 1, 1, |1, 1, 1, 1, 1, |1, 1, 1, 1, 1, |1, 1, 1, 1, 1, |1, 0, 1, 1, 0, |1, 1, 1, 1, 1, |0, 1, 0, 1, 0, |0, 1, 1, 1, 1, |1, 1, 1, 0, 1, |0, 1, 1, 1, 0, |1, 1, 1, 1, 1, |0, 1, 1, 1, 1|];
StudentsProgramm = [1, 1, 1, 1, 1, 1, 1, 1, 1, 1];
StudentsDegree = [2, 2, 1, 2, 2, 1, 1, 2, 2, 1];
StudentsSupervisorId = [52, 61, 57, 33, 61, 16, 75, 29, 44, 13];
StudentsCourseIds = [{1, 2, 3, 4, 5}, {1, 2, 3, 4, 5}, {}, {1, 2, 3, 4, 5}, {1, 2, 3, 4, 5}, {}, {}, {1, 2, 3, 4, 5}, {1, 2, 3, 4, 5}, {}];
StudentsAvailability = [|1, 1, 1, 1, 1, |0, 0, 0, 1, 1, |0, 1, 1, 1, 1, |1, 1, 0, 1, 1, |1, 1, 1, 1, 1, |1, 1, 1, 1, 1, |0, 1, 1, 1, 1, |1, 1, 1, 0, 1, |1, 1, 1, 1, 1, |1, 1, 1, 1, 1|];
TheoryticalMinCard = [0, 0, 0, 0, 0, 0, 0, 0, 0, 0];
CoursesInstructorIds = [{3, 13, 19, 29, 32, 33, 36, 48, 52, 61, 66, 67, 71, 75, 84}, {2, 3, 5, 11, 14, 17, 22, 23, 25, 28, 29, 30, 32, 33, 34, 35, 41, 43, 45, 47, 48, 49, 50, 53, 55, 56, 57, 59, 62, 64, 65, 69, 70, 71, 74, 75, 76, 78, 80, 83, 84, 85, 86, 87, 89}, {15, 40, 41, 45, 49, 57, 59, 74, 79}, {2, 3, 4, 5, 6, 7, 8, 9, 10, 11, 13, 15, 16, 18, 19, 21, 25, 26, 27, 28, 30, 31, 33, 36, 37, 38, 39, 43, 45, 47, 50, 53, 54, 56, 57, 58, 59, 60, 61, 62, 66, 67, 68, 70, 72, 73, 74, 75, 78, 79, 80, 82, 83, 84, 86, 87, 88, 89}, {5, 6, 13, 15, 17, 21, 23, 25, 26, 28, 29, 30, 35, 36, 37, 39, 40, 41, 43, 46, 49, 52, 53, 54, 56, 57, 59, 60, 61, 62, 65, 68, 71, 72, 77, 79, 80, 85, 86, 89}];
RolesDemands = [28, 23, 4, 31];
RolesContinuity = [1];
ExamLen = [2, 2, 2, 2, 2, 2, 2, 2, 2, 2];
LunchTsMinLen = 0;
LunchStarts = [4..9];
SupervisorAvailable = 5;
OptimalLunchLenght = [1, 2];
OptimalStartTs = [0, 1];
OptimalFinishTs = [2, 14];
MinimizeRooms = 500;
RolesSoftContinuity = [|1, 2, 3, 4|0, 3, 4, 4|];
SameDegreeInRoom = 0;
Mergeability = 0;
